<number of tasks>
70

<cycle time>
176

<task times>
1 17
2 66
3 54
4 52
5 6
6 88
7 21
8 128
9 68
10 70
11 85
12 21
13 134
14 135
15 94
16 90
17 50
18 143
19 19
20 54
21 50
22 40
23 73
24 12
25 152
26 42
27 45
28 74
29 26
30 11
31 31
32 50
33 102
34 46
35 35
36 40
37 2
38 1
39 3
40 13
41 16
42 25
43 21
44 43
45 30
46 83
47 89
48 56
49 59
50 43
51 11
52 26
53 44
54 121
55 38
56 68
57 22
58 7
59 16
60 32
61 25
62 27
63 156
64 28
65 15
66 26
67 18
68 72
69 23
70 27

<precedence relations>
1,2
1,41
1,69
1,70
2,3
3,4
3,68
4,6
4,7
5,6
5,24
5,30
6,8
7,8
8,12
9,10
10,11
11,12
12,13
12,14
13,23
14,23
15,16
16,17
16,18
17,19
18,19
19,20
19,22
19,57
20,21
21,23
22,23
23,25
23,31
23,33
24,25
25,26
25,27
25,28
25,29
26,35
27,35
28,35
29,35
30,31
31,32
32,35
33,34
34,35
35,36
35,44
35,48
35,51
35,53
35,56
35,60
35,61
35,62
36,37
37,38
38,39
39,40
40,42
41,42
42,43
43,50
44,45
45,46
46,47
47,50
48,49
49,50
51,52
52,54
53,54
54,55
57,58
58,59
59,60
61,65
62,63
63,64
64,65
64,66
64,67

<setup times forward>
1,9:8
1,10:7
1,11:11
1,15:20
1,16:7
1,17:11
1,18:1
1,19:1
1,20:8
1,21:8
1,22:18
1,41:8
1,57:11
1,58:11
1,59:3
1,69:14
1,70:5
2,9:8
2,10:7
2,11:11
2,15:20
2,16:7
2,17:11
2,18:1
2,19:1
2,20:8
2,21:8
2,22:18
2,41:8
2,57:11
2,58:11
2,59:3
2,69:14
2,70:5
3,4:20
3,9:8
3,10:7
3,11:11
3,15:20
3,16:7
3,17:11
3,18:1
3,19:1
3,20:8
3,21:8
3,22:18
3,41:8
3,57:11
3,58:11
3,59:3
3,68:8
3,69:14
3,70:5
4,5:20
4,6:28
4,9:28
4,10:13
4,11:31
4,16:13
4,17:31
4,18:21
4,19:21
4,20:28
4,21:28
4,22:38
4,24:20
4,30:20
4,41:28
4,57:9
4,58:9
4,59:23
4,68:28
4,69:6
4,70:15
5,4:20
5,6:8
5,7:20
5,9:8
5,10:7
5,11:11
5,15:20
5,16:7
5,17:11
5,18:1
5,19:1
5,20:8
5,21:8
5,22:18
5,41:8
5,57:11
5,58:11
5,59:3
5,68:8
5,69:14
5,70:5
6,7:28
6,8:13
6,10:15
6,11:3
6,15:28
6,16:15
6,17:3
6,18:7
6,19:7
6,22:10
6,24:8
6,30:8
6,57:19
6,58:19
6,59:5
6,69:22
6,70:13
7,5:20
7,6:28
7,8:15
7,9:28
7,10:13
7,11:31
7,16:13
7,17:31
7,18:21
7,19:21
7,20:28
7,21:28
7,22:38
7,24:20
7,30:20
7,41:28
7,57:9
7,58:9
7,59:23
7,68:28
7,69:6
7,70:15
8,9:13
8,10:2
8,11:16
8,12:16
8,15:15
8,16:2
8,17:16
8,18:6
8,19:6
8,20:13
8,21:13
8,22:23
8,24:5
8,30:5
8,41:13
8,57:6
8,58:6
8,59:8
8,68:13
8,69:9
9,1:8
9,2:8
9,3:8
9,4:28
9,5:8
9,7:28
9,8:13
9,10:15
9,15:28
9,16:15
9,17:3
9,18:7
9,19:7
9,22:10
9,24:8
9,30:8
9,57:19
9,58:19
9,59:5
9,69:22
9,70:13
10,1:7
10,2:7
10,3:7
10,4:13
10,5:7
10,6:15
10,7:13
10,8:2
10,11:18
10,15:13
10,17:18
10,18:8
10,19:8
10,20:15
10,21:15
10,22:25
10,24:7
10,30:7
10,41:15
10,57:4
10,58:4
10,59:10
10,68:15
10,69:7
10,70:2
11,1:11
11,2:11
11,3:11
11,4:31
11,5:11
11,6:3
11,7:31
11,8:16
11,15:31
11,16:18
11,18:10
11,19:10
11,20:3
11,21:3
11,22:7
11,24:11
11,30:11
11,41:3
11,57:22
11,58:22
11,59:8
11,68:3
11,69:25
11,70:16
12,13:22
12,14:7
12,15:31
12,16:18
12,18:10
12,19:10
12,20:3
12,21:3
12,22:7
12,24:11
12,30:11
12,41:3
12,57:22
12,58:22
12,59:8
12,68:3
12,69:25
12,70:16
13,14:29
13,15:9
13,16:4
13,17:22
13,18:12
13,19:12
13,20:19
13,21:19
13,22:29
13,23:34
13,24:11
13,30:11
13,41:19
13,59:14
13,68:19
13,69:3
13,70:6
14,13:29
14,15:38
14,16:25
14,17:7
14,18:17
14,19:17
14,20:10
14,21:10
14,23:5
14,24:18
14,30:18
14,41:10
14,57:29
14,58:29
14,59:15
14,68:10
14,69:32
14,70:23
15,1:20
15,2:20
15,3:20
15,5:20
15,6:28
15,8:15
15,9:28
15,10:13
15,11:31
15,12:31
15,13:9
15,14:38
15,16:13
15,24:20
15,30:20
15,41:28
15,68:28
15,69:6
15,70:15
16,1:7
16,2:7
16,3:7
16,4:13
16,5:7
16,6:15
16,7:13
16,8:2
16,9:15
16,11:18
16,12:18
16,13:4
16,14:25
16,17:18
16,18:8
16,24:7
16,30:7
16,41:15
16,68:15
16,69:7
16,70:2
17,1:11
17,2:11
17,3:11
17,4:31
17,5:11
17,6:3
17,7:31
17,8:16
17,9:3
17,10:18
17,13:22
17,14:7
17,18:10
17,19:10
17,24:11
17,30:11
17,41:3
17,68:3
17,69:25
17,70:16
18,1:1
18,2:1
18,3:1
18,4:21
18,5:1
18,6:7
18,7:21
18,8:6
18,9:7
18,10:8
18,11:10
18,12:10
18,13:12
18,14:17
18,17:10
18,24:1
18,30:1
18,41:7
18,68:7
18,69:15
18,70:6
19,1:1
19,2:1
19,3:1
19,4:21
19,5:1
19,6:7
19,7:21
19,8:6
19,9:7
19,10:8
19,11:10
19,12:10
19,13:12
19,14:17
19,20:7
19,22:17
19,24:1
19,30:1
19,41:7
19,57:12
19,68:7
19,69:15
19,70:6
20,1:8
20,2:8
20,3:8
20,4:28
20,5:8
20,7:28
20,8:13
20,10:15
20,11:3
20,12:3
20,13:19
20,14:10
20,22:10
20,24:8
20,30:8
20,57:19
20,58:19
20,59:5
20,69:22
20,70:13
21,1:8
21,2:8
21,3:8
21,4:28
21,5:8
21,7:28
21,8:13
21,10:15
21,11:3
21,12:3
21,13:19
21,14:10
21,22:10
21,23:15
21,24:8
21,30:8
21,57:19
21,58:19
21,59:5
21,69:22
21,70:13
22,1:18
22,2:18
22,3:18
22,4:38
22,5:18
22,6:10
22,7:38
22,8:23
22,9:10
22,10:25
22,11:7
22,12:7
22,13:29
22,20:10
22,21:10
22,23:5
22,24:18
22,30:18
22,41:10
22,57:29
22,58:29
22,59:15
22,68:10
22,69:32
22,70:23
23,24:23
23,25:20
23,30:23
23,31:28
23,41:15
23,57:34
23,58:34
23,59:20
23,68:15
23,69:37
23,70:28
24,4:20
24,6:8
24,7:20
24,8:5
24,9:8
24,10:7
24,11:11
24,12:11
24,13:11
24,14:18
24,15:20
24,16:7
24,17:11
24,18:1
24,19:1
24,20:8
24,21:8
24,22:18
24,23:23
24,25:3
24,31:5
24,32:5
24,33:23
24,34:14
24,41:8
24,57:11
24,58:11
24,59:3
24,68:8
24,69:14
24,70:5
25,26:17
25,27:17
25,28:8
25,29:17
25,30:3
25,31:8
25,32:8
25,33:20
25,34:17
25,41:5
25,57:14
25,58:14
25,68:5
25,69:17
25,70:8
26,28:9
26,30:14
26,31:9
26,32:9
26,33:37
26,35:40
26,41:22
26,57:3
26,58:3
26,59:17
26,68:22
26,70:9
27,28:9
27,30:14
27,31:9
27,32:9
27,33:37
27,35:40
27,41:22
27,57:3
27,58:3
27,59:17
27,68:22
27,70:9
28,26:9
28,27:9
28,29:9
28,30:5
28,33:28
28,34:9
28,35:31
28,41:13
28,57:6
28,58:6
28,59:8
28,68:13
28,69:9
29,28:9
29,30:14
29,31:9
29,32:9
29,33:37
29,35:40
29,41:22
29,57:3
29,58:3
29,59:17
29,68:22
29,70:9
30,4:20
30,6:8
30,7:20
30,8:5
30,9:8
30,10:7
30,11:11
30,12:11
30,13:11
30,14:18
30,15:20
30,16:7
30,17:11
30,18:1
30,19:1
30,20:8
30,21:8
30,22:18
30,23:23
30,25:3
30,26:14
30,27:14
30,28:5
30,29:14
30,31:5
30,33:23
30,34:14
30,41:8
30,57:11
30,58:11
30,59:3
30,68:8
30,69:14
30,70:5
31,24:5
31,25:8
31,26:9
31,27:9
31,29:9
31,33:28
31,34:9
31,41:13
31,57:6
31,58:6
31,59:8
31,68:13
31,69:9
32,24:5
32,25:8
32,26:9
32,27:9
32,29:9
32,33:28
32,34:9
32,35:31
32,41:13
32,57:6
32,58:6
32,59:8
32,68:13
32,69:9
33,24:23
33,25:20
33,26:37
33,27:37
33,28:28
33,29:37
33,30:23
33,31:28
33,32:28
33,34:37
33,41:15
33,57:34
33,58:34
33,59:20
33,68:15
33,69:37
33,70:28
34,24:14
34,25:17
34,28:9
34,30:14
34,31:9
34,32:9
34,35:40
34,41:22
34,57:3
34,58:3
34,59:17
34,68:22
34,70:9
35,36:45
35,41:18
35,48:40
35,53:45
35,56:30
35,57:37
35,58:37
35,59:23
35,60:40
35,61:40
35,68:18
35,69:40
35,70:31
36,41:27
36,44:45
36,45:45
36,47:15
36,48:5
36,49:6
36,51:45
36,52:45
36,54:24
36,55:6
36,56:15
36,57:8
36,58:8
36,59:22
36,60:5
36,61:5
36,62:45
36,63:42
36,64:24
36,65:6
36,66:24
36,67:15
36,68:27
36,69:5
36,70:14
37,41:27
37,44:45
37,45:45
37,47:15
37,48:5
37,49:6
37,51:45
37,52:45
37,54:24
37,55:6
37,56:15
37,57:8
37,58:8
37,59:22
37,60:5
37,61:5
37,62:45
37,63:42
37,64:24
37,65:6
37,66:24
37,67:15
37,68:27
37,69:5
37,70:14
38,41:27
38,44:45
38,45:45
38,47:15
38,48:5
38,49:6
38,51:45
38,52:45
38,54:24
38,55:6
38,56:15
38,57:8
38,58:8
38,59:22
38,60:5
38,61:5
38,62:45
38,63:42
38,64:24
38,65:6
38,66:24
38,67:15
38,68:27
38,69:5
38,70:14
39,40:5
39,41:27
39,44:45
39,45:45
39,47:15
39,48:5
39,49:6
39,51:45
39,52:45
39,54:24
39,55:6
39,56:15
39,57:8
39,58:8
39,59:22
39,60:5
39,61:5
39,62:45
39,63:42
39,64:24
39,65:6
39,66:24
39,67:15
39,68:27
39,69:5
39,70:14
40,41:22
40,44:40
40,45:40
40,46:5
40,47:10
40,49:1
40,51:40
40,52:40
40,53:5
40,54:19
40,55:1
40,56:10
40,57:3
40,58:3
40,59:17
40,62:40
40,63:37
40,64:19
40,65:1
40,66:19
40,67:10
40,68:22
40,70:9
41,2:8
41,3:8
41,4:28
41,5:8
41,7:28
41,8:13
41,10:15
41,11:3
41,12:3
41,13:19
41,14:10
41,15:28
41,16:15
41,17:3
41,18:7
41,19:7
41,22:10
41,23:15
41,24:8
41,25:5
41,26:22
41,27:22
41,28:13
41,29:22
41,30:8
41,31:13
41,32:13
41,33:15
41,34:22
41,35:18
41,36:27
41,37:27
41,38:27
41,39:27
41,40:22
41,42:22
41,44:18
41,45:18
41,46:27
41,47:12
41,48:22
41,49:21
41,51:18
41,52:18
41,53:27
41,54:3
41,55:21
41,56:12
41,57:19
41,58:19
41,59:5
41,60:22
41,61:22
41,62:18
41,63:15
41,64:3
41,65:21
41,66:3
41,67:12
41,69:22
41,70:13
42,43:1
42,44:40
42,45:40
42,46:5
42,47:10
42,49:1
42,51:40
42,52:40
42,53:5
42,54:19
42,55:1
42,56:10
42,57:3
42,58:3
42,59:17
42,62:40
42,63:37
42,64:19
42,65:1
42,66:19
42,67:10
42,68:22
42,70:9
43,44:39
43,45:39
43,46:6
43,47:9
43,48:1
43,51:39
43,52:39
43,53:6
43,54:18
43,56:9
43,57:2
43,58:2
43,59:16
43,60:1
43,61:1
43,62:39
43,63:36
43,64:18
43,66:18
43,67:9
43,68:21
43,69:1
43,70:8
44,36:45
44,37:45
44,38:45
44,39:45
44,40:40
44,41:18
44,42:40
44,43:39
44,48:40
44,49:39
44,53:45
44,54:21
44,55:39
44,56:30
44,57:37
44,58:37
44,59:23
44,60:40
44,61:40
44,63:3
44,64:21
44,65:39
44,66:21
44,67:30
44,68:18
44,69:40
44,70:31
45,36:45
45,37:45
45,38:45
45,39:45
45,40:40
45,41:18
45,42:40
45,43:39
45,46:45
45,48:40
45,49:39
45,53:45
45,54:21
45,55:39
45,56:30
45,57:37
45,58:37
45,59:23
45,60:40
45,61:40
45,63:3
45,64:21
45,65:39
45,66:21
45,67:30
45,68:18
45,69:40
45,70:31
46,40:5
46,41:27
46,42:5
46,43:6
46,47:15
46,48:5
46,49:6
46,51:45
46,52:45
46,54:24
46,55:6
46,56:15
46,57:8
46,58:8
46,59:22
46,60:5
46,61:5
46,62:45
46,63:42
46,64:24
46,65:6
46,66:24
46,67:15
46,68:27
46,69:5
46,70:14
47,36:15
47,37:15
47,38:15
47,39:15
47,40:10
47,41:12
47,42:10
47,43:9
47,48:10
47,49:9
47,50:9
47,51:30
47,52:30
47,53:15
47,54:9
47,55:9
47,57:7
47,58:7
47,59:7
47,60:10
47,61:10
47,62:30
47,63:27
47,64:9
47,65:9
47,66:9
47,68:12
47,69:10
47,70:1
48,36:5
48,37:5
48,38:5
48,39:5
48,41:22
48,43:1
48,44:40
48,45:40
48,46:5
48,47:10
48,49:1
48,51:40
48,52:40
48,53:5
48,54:19
48,55:1
48,56:10
48,57:3
48,58:3
48,59:17
48,62:40
48,63:37
48,64:19
48,65:1
48,66:19
48,67:10
48,68:22
48,70:9
49,36:6
49,37:6
49,38:6
49,39:6
49,40:1
49,41:21
49,42:1
49,44:39
49,45:39
49,46:6
49,47:9
49,51:39
49,52:39
49,53:6
49,54:18
49,56:9
49,57:2
49,58:2
49,59:16
49,60:1
49,61:1
49,62:39
49,63:36
49,64:18
49,66:18
49,67:9
49,68:21
49,69:1
49,70:8
50,51:39
50,52:39
50,53:6
50,54:18
50,56:9
50,57:2
50,58:2
50,59:16
50,60:1
50,61:1
50,62:39
50,63:36
50,64:18
50,66:18
50,67:9
50,68:21
50,69:1
50,70:8
51,36:45
51,37:45
51,38:45
51,39:45
51,40:40
51,41:18
51,42:40
51,43:39
51,46:45
51,47:30
51,48:40
51,49:39
51,50:39
51,53:45
51,56:30
51,57:37
51,58:37
51,59:23
51,60:40
51,61:40
51,63:3
51,64:21
51,65:39
51,66:21
51,67:30
51,68:18
51,69:40
51,70:31
52,36:45
52,37:45
52,38:45
52,39:45
52,40:40
52,41:18
52,42:40
52,43:39
52,46:45
52,47:30
52,48:40
52,49:39
52,50:39
52,53:45
52,54:21
52,56:30
52,57:37
52,58:37
52,59:23
52,60:40
52,61:40
52,63:3
52,64:21
52,65:39
52,66:21
52,67:30
52,68:18
52,69:40
52,70:31
53,40:5
53,41:27
53,42:5
53,43:6
53,44:45
53,45:45
53,47:15
53,48:5
53,49:6
53,50:6
53,51:45
53,52:45
53,54:24
53,56:15
53,57:8
53,58:8
53,59:22
53,60:5
53,61:5
53,62:45
53,63:42
53,64:24
53,65:6
53,66:24
53,67:15
53,68:27
53,69:5
53,70:14
54,36:24
54,37:24
54,38:24
54,39:24
54,40:19
54,41:3
54,42:19
54,43:18
54,44:21
54,45:21
54,46:24
54,47:9
54,48:19
54,49:18
54,50:18
54,55:18
54,56:9
54,57:16
54,58:16
54,59:2
54,60:19
54,61:19
54,62:21
54,63:18
54,65:18
54,67:9
54,68:3
54,69:19
54,70:10
55,36:6
55,37:6
55,38:6
55,39:6
55,40:1
55,41:21
55,42:1
55,44:39
55,45:39
55,46:6
55,47:9
55,48:1
55,56:9
55,57:2
55,58:2
55,59:16
55,60:1
55,61:1
55,62:39
55,63:36
55,64:18
55,66:18
55,67:9
55,68:21
55,69:1
55,70:8
56,36:15
56,37:15
56,38:15
56,39:15
56,40:10
56,41:12
56,42:10
56,43:9
56,44:30
56,45:30
56,46:15
56,48:10
56,49:9
56,50:9
56,51:30
56,52:30
56,53:15
56,54:9
56,55:9
56,57:7
56,58:7
56,59:7
56,60:10
56,61:10
56,62:30
56,63:27
56,64:9
56,65:9
56,66:9
56,68:12
56,69:10
56,70:1
57,1:11
57,2:11
57,3:11
57,4:9
57,5:11
57,6:19
57,7:9
57,8:6
57,9:19
57,10:4
57,11:22
57,12:22
57,14:29
57,20:19
57,21:19
57,22:29
57,23:34
57,24:11
57,25:14
57,26:3
57,27:3
57,28:6
57,29:3
57,30:11
57,31:6
57,32:6
57,33:34
57,34:3
57,35:37
57,36:8
57,37:8
57,38:8
57,39:8
57,40:3
57,41:19
57,42:3
57,43:2
57,44:37
57,45:37
57,46:8
57,47:7
57,48:3
57,49:2
57,50:2
57,51:37
57,52:37
57,53:8
57,54:16
57,55:2
57,56:7
57,61:3
57,62:37
57,63:34
57,64:16
57,65:2
57,66:16
57,67:7
57,68:19
57,69:3
57,70:6
58,1:11
58,2:11
58,3:11
58,4:9
58,5:11
58,6:19
58,7:9
58,8:6
58,9:19
58,10:4
58,11:22
58,12:22
58,14:29
58,20:19
58,21:19
58,22:29
58,23:34
58,24:11
58,25:14
58,26:3
58,27:3
58,28:6
58,29:3
58,30:11
58,31:6
58,32:6
58,33:34
58,34:3
58,35:37
58,36:8
58,37:8
58,38:8
58,39:8
58,40:3
58,41:19
58,42:3
58,43:2
58,44:37
58,45:37
58,46:8
58,47:7
58,48:3
58,49:2
58,50:2
58,51:37
58,52:37
58,53:8
58,54:16
58,55:2
58,56:7
58,59:14
58,61:3
58,62:37
58,63:34
58,64:16
58,65:2
58,66:16
58,67:7
58,68:19
58,69:3
58,70:6
59,1:3
59,2:3
59,3:3
59,4:23
59,5:3
59,6:5
59,7:23
59,8:8
59,9:5
59,10:10
59,11:8
59,12:8
59,13:14
59,14:15
59,20:5
59,21:5
59,22:15
59,23:20
59,24:3
59,26:17
59,27:17
59,28:8
59,29:17
59,30:3
59,31:8
59,32:8
59,33:20
59,34:17
59,35:23
59,36:22
59,37:22
59,38:22
59,39:22
59,40:17
59,41:5
59,42:17
59,43:16
59,44:23
59,45:23
59,46:22
59,47:7
59,48:17
59,49:16
59,50:16
59,51:23
59,52:23
59,53:22
59,54:2
59,55:16
59,56:7
59,60:17
59,61:17
59,62:23
59,63:20
59,64:2
59,65:16
59,66:2
59,67:7
59,68:5
59,69:17
59,70:8
60,36:5
60,37:5
60,38:5
60,39:5
60,41:22
60,43:1
60,44:40
60,45:40
60,46:5
60,47:10
60,49:1
60,50:1
60,51:40
60,52:40
60,53:5
60,54:19
60,55:1
60,56:10
60,62:40
60,63:37
60,64:19
60,65:1
60,66:19
60,67:10
60,68:22
60,70:9
61,36:5
61,37:5
61,38:5
61,39:5
61,41:22
61,43:1
61,44:40
61,45:40
61,46:5
61,47:10
61,49:1
61,50:1
61,51:40
61,52:40
61,53:5
61,54:19
61,55:1
61,56:10
61,57:3
61,58:3
61,59:17
61,62:40
61,63:37
61,64:19
61,65:1
61,66:19
61,67:10
61,68:22
61,70:9
62,36:45
62,37:45
62,38:45
62,39:45
62,40:40
62,41:18
62,42:40
62,43:39
62,46:45
62,47:30
62,48:40
62,49:39
62,50:39
62,53:45
62,54:21
62,55:39
62,56:30
62,57:37
62,58:37
62,59:23
62,60:40
62,61:40
62,63:3
62,68:18
62,69:40
62,70:31
63,36:42
63,37:42
63,38:42
63,39:42
63,40:37
63,41:15
63,42:37
63,43:36
63,44:3
63,45:3
63,46:42
63,47:27
63,48:37
63,49:36
63,50:36
63,51:3
63,52:3
63,53:42
63,54:18
63,55:36
63,56:27
63,57:34
63,58:34
63,59:20
63,60:37
63,61:37
63,64:18
63,68:15
63,69:37
63,70:28
64,36:24
64,37:24
64,38:24
64,39:24
64,40:19
64,41:3
64,42:19
64,43:18
64,44:21
64,45:21
64,46:24
64,47:9
64,48:19
64,49:18
64,50:18
64,51:21
64,52:21
64,53:24
64,55:18
64,56:9
64,57:16
64,58:16
64,59:2
64,60:19
64,61:19
64,65:18
64,67:9
64,68:3
64,69:19
64,70:10
65,36:6
65,37:6
65,38:6
65,39:6
65,40:1
65,41:21
65,42:1
65,44:39
65,45:39
65,46:6
65,47:9
65,48:1
65,51:39
65,52:39
65,53:6
65,54:18
65,56:9
65,57:2
65,58:2
65,59:16
65,60:1
65,66:18
65,67:9
65,68:21
65,69:1
65,70:8
66,36:24
66,37:24
66,38:24
66,39:24
66,40:19
66,41:3
66,42:19
66,43:18
66,44:21
66,45:21
66,46:24
66,47:9
66,48:19
66,49:18
66,50:18
66,51:21
66,52:21
66,53:24
66,55:18
66,56:9
66,57:16
66,58:16
66,59:2
66,60:19
66,61:19
66,65:18
66,67:9
66,68:3
66,69:19
66,70:10
67,36:15
67,37:15
67,38:15
67,39:15
67,40:10
67,41:12
67,42:10
67,43:9
67,44:30
67,45:30
67,46:15
67,48:10
67,49:9
67,50:9
67,51:30
67,52:30
67,53:15
67,54:9
67,55:9
67,57:7
67,58:7
67,59:7
67,60:10
67,61:10
67,65:9
67,66:9
67,68:12
67,69:10
67,70:1
68,4:28
68,5:8
68,7:28
68,8:13
68,10:15
68,11:3
68,12:3
68,13:19
68,14:10
68,15:28
68,16:15
68,17:3
68,18:7
68,19:7
68,22:10
68,23:15
68,24:8
68,25:5
68,26:22
68,27:22
68,28:13
68,29:22
68,30:8
68,31:13
68,32:13
68,33:15
68,34:22
68,35:18
68,36:27
68,37:27
68,38:27
68,39:27
68,40:22
68,42:22
68,43:21
68,44:18
68,45:18
68,46:27
68,47:12
68,48:22
68,49:21
68,50:21
68,51:18
68,52:18
68,53:27
68,54:3
68,55:21
68,56:12
68,57:19
68,58:19
68,59:5
68,60:22
68,61:22
68,62:18
68,63:15
68,64:3
68,65:21
68,66:3
68,67:12
68,69:22
68,70:13
69,2:14
69,3:14
69,4:6
69,5:14
69,6:22
69,7:6
69,8:9
69,9:22
69,10:7
69,11:25
69,12:25
69,13:3
69,14:32
69,15:6
69,16:7
69,17:25
69,18:15
69,19:15
69,20:22
69,21:22
69,22:32
69,23:37
69,24:14
69,25:17
69,28:9
69,30:14
69,31:9
69,32:9
69,33:37
69,35:40
69,36:5
69,37:5
69,38:5
69,39:5
69,41:22
69,43:1
69,44:40
69,45:40
69,46:5
69,47:10
69,49:1
69,50:1
69,51:40
69,52:40
69,53:5
69,54:19
69,55:1
69,56:10
69,57:3
69,58:3
69,59:17
69,62:40
69,63:37
69,64:19
69,65:1
69,66:19
69,67:10
69,68:22
69,70:9
70,2:5
70,3:5
70,4:15
70,5:5
70,6:13
70,7:15
70,9:13
70,10:2
70,11:16
70,12:16
70,13:6
70,14:23
70,15:15
70,16:2
70,17:16
70,18:6
70,19:6
70,20:13
70,21:13
70,22:23
70,23:28
70,24:5
70,25:8
70,26:9
70,27:9
70,29:9
70,30:5
70,33:28
70,34:9
70,35:31
70,36:14
70,37:14
70,38:14
70,39:14
70,40:9
70,41:13
70,42:9
70,43:8
70,44:31
70,45:31
70,46:14
70,47:1
70,48:9
70,49:8
70,50:8
70,51:31
70,52:31
70,53:14
70,54:10
70,55:8
70,56:1
70,57:6
70,58:6
70,59:8
70,60:9
70,61:9
70,62:31
70,63:28
70,64:10
70,65:8
70,66:10
70,67:1
70,68:13
70,69:9

<setup times backward>
1,9:8
1,11:11
1,17:11
1,18:1
1,19:1
1,20:8
1,21:8
1,22:18
1,59:3
2,9:8
2,11:11
2,17:11
2,18:1
2,19:1
2,20:8
2,21:8
2,22:18
2,41:8
2,59:3
3,9:8
3,11:11
3,17:11
3,18:1
3,19:1
3,20:8
3,21:8
3,22:18
3,41:8
3,59:3
4,1:20
4,2:20
4,3:20
4,5:20
4,9:28
4,10:13
4,11:31
4,16:13
4,17:31
4,18:21
4,19:21
4,20:28
4,21:28
4,22:38
4,24:20
4,30:20
4,41:28
4,57:9
4,58:9
4,59:23
4,68:28
4,69:6
4,70:15
5,9:8
5,11:11
5,17:11
5,18:1
5,19:1
5,20:8
5,21:8
5,22:18
5,41:8
5,59:3
5,68:8
6,11:3
6,17:3
6,22:10
7,1:20
7,2:20
7,3:20
7,5:20
7,6:28
7,9:28
7,10:13
7,11:31
7,16:13
7,17:31
7,18:21
7,19:21
7,20:28
7,21:28
7,22:38
7,24:20
7,30:20
7,41:28
7,57:9
7,58:9
7,59:23
7,68:28
7,69:6
7,70:15
8,1:5
8,2:5
8,3:5
8,5:5
8,6:13
8,9:13
8,11:16
8,17:16
8,18:6
8,19:6
8,20:13
8,21:13
8,22:23
8,24:5
8,30:5
8,41:13
8,59:8
8,68:13
9,17:3
9,22:10
10,1:7
10,2:7
10,3:7
10,5:7
10,6:15
10,8:2
10,9:15
10,17:18
10,18:8
10,19:8
10,20:15
10,21:15
10,22:25
10,24:7
10,30:7
10,41:15
10,59:10
10,68:15
10,70:2
11,22:7
12,22:7
13,1:11
13,2:11
13,3:11
13,5:11
13,6:19
13,8:6
13,9:19
13,10:4
13,11:22
13,12:22
13,14:29
13,16:4
13,17:22
13,18:12
13,19:12
13,20:19
13,21:19
13,22:29
13,24:11
13,30:11
13,41:19
13,59:14
13,68:19
13,70:6
15,1:20
15,2:20
15,3:20
15,5:20
15,6:28
15,8:15
15,9:28
15,10:13
15,11:31
15,12:31
15,13:9
15,14:38
15,24:20
15,30:20
15,41:28
15,68:28
15,69:6
15,70:15
16,1:7
16,2:7
16,3:7
16,5:7
16,6:15
16,8:2
16,9:15
16,11:18
16,12:18
16,14:25
16,24:7
16,30:7
16,41:15
16,68:15
16,70:2
17,14:7
18,6:7
18,9:7
18,11:10
18,12:10
18,14:17
18,17:10
18,41:7
18,68:7
19,6:7
19,9:7
19,11:10
19,12:10
19,14:17
19,17:10
19,41:7
19,68:7
20,11:3
20,12:3
20,14:10
20,17:3
20,22:10
21,11:3
21,12:3
21,14:10
21,17:3
21,22:10
24,6:8
24,9:8
24,11:11
24,12:11
24,14:18
24,17:11
24,18:1
24,19:1
24,20:8
24,21:8
24,22:18
24,23:23
24,33:23
24,41:8
24,59:3
24,68:8
25,6:5
25,9:5
25,11:8
25,12:8
25,14:15
25,17:8
25,20:5
25,21:5
25,22:15
25,23:20
25,33:20
25,41:5
25,68:5
26,1:14
26,2:14
26,3:14
26,5:14
26,6:22
26,8:9
26,9:22
26,10:7
26,11:25
26,12:25
26,13:3
26,14:32
26,16:7
26,17:25
26,18:15
26,19:15
26,20:22
26,21:22
26,22:32
26,23:37
26,24:14
26,25:17
26,28:9
26,30:14
26,31:9
26,32:9
26,33:37
26,41:22
26,57:3
26,58:3
26,59:17
26,68:22
26,70:9
27,1:14
27,2:14
27,3:14
27,5:14
27,6:22
27,8:9
27,9:22
27,10:7
27,11:25
27,12:25
27,13:3
27,14:32
27,16:7
27,17:25
27,18:15
27,19:15
27,20:22
27,21:22
27,22:32
27,23:37
27,24:14
27,25:17
27,28:9
27,30:14
27,31:9
27,32:9
27,33:37
27,41:22
27,57:3
27,58:3
27,59:17
27,68:22
27,70:9
28,1:5
28,2:5
28,3:5
28,5:5
28,6:13
28,9:13
28,11:16
28,12:16
28,14:23
28,17:16
28,18:6
28,19:6
28,20:13
28,21:13
28,22:23
28,23:28
28,24:5
28,25:8
28,30:5
28,33:28
28,41:13
28,59:8
28,68:13
29,1:14
29,2:14
29,3:14
29,5:14
29,6:22
29,8:9
29,9:22
29,10:7
29,11:25
29,12:25
29,13:3
29,14:32
29,16:7
29,17:25
29,18:15
29,19:15
29,20:22
29,21:22
29,22:32
29,23:37
29,24:14
29,25:17
29,28:9
29,30:14
29,31:9
29,32:9
29,33:37
29,41:22
29,57:3
29,58:3
29,59:17
29,68:22
29,70:9
30,6:8
30,9:8
30,11:11
30,12:11
30,14:18
30,17:11
30,18:1
30,19:1
30,20:8
30,21:8
30,22:18
30,23:23
30,25:3
30,33:23
30,41:8
30,59:3
30,68:8
31,1:5
31,2:5
31,3:5
31,5:5
31,6:13
31,9:13
31,11:16
31,12:16
31,14:23
31,17:16
31,18:6
31,19:6
31,20:13
31,21:13
31,22:23
31,23:28
31,24:5
31,25:8
31,30:5
31,33:28
31,41:13
31,59:8
31,68:13
32,1:5
32,2:5
32,3:5
32,5:5
32,6:13
32,9:13
32,11:16
32,12:16
32,14:23
32,17:16
32,18:6
32,19:6
32,20:13
32,21:13
32,22:23
32,23:28
32,24:5
32,25:8
32,30:5
32,33:28
32,41:13
32,59:8
32,68:13
34,1:14
34,2:14
34,3:14
34,5:14
34,6:22
34,8:9
34,9:22
34,10:7
34,11:25
34,12:25
34,13:3
34,14:32
34,16:7
34,17:25
34,18:15
34,19:15
34,20:22
34,21:22
34,22:32
34,23:37
34,24:14
34,25:17
34,28:9
34,30:14
34,31:9
34,32:9
34,33:37
34,41:22
34,57:3
34,58:3
34,59:17
34,68:22
34,70:9
36,1:19
36,2:19
36,3:19
36,5:19
36,6:27
36,8:14
36,9:27
36,10:12
36,11:30
36,12:30
36,13:8
36,14:37
36,16:12
36,17:30
36,18:20
36,19:20
36,20:27
36,21:27
36,22:37
36,23:42
36,24:19
36,25:22
36,26:5
36,27:5
36,28:14
36,29:5
36,30:19
36,31:14
36,32:14
36,33:42
36,34:5
36,35:45
36,41:27
36,44:45
36,45:45
36,47:15
36,48:5
36,49:6
36,51:45
36,52:45
36,54:24
36,55:6
36,56:15
36,57:8
36,58:8
36,59:22
36,60:5
36,61:5
36,62:45
36,63:42
36,64:24
36,65:6
36,66:24
36,67:15
36,68:27
36,69:5
36,70:14
37,1:19
37,2:19
37,3:19
37,5:19
37,6:27
37,8:14
37,9:27
37,10:12
37,11:30
37,12:30
37,13:8
37,14:37
37,16:12
37,17:30
37,18:20
37,19:20
37,20:27
37,21:27
37,22:37
37,23:42
37,24:19
37,25:22
37,26:5
37,27:5
37,28:14
37,29:5
37,30:19
37,31:14
37,32:14
37,33:42
37,34:5
37,35:45
37,41:27
37,44:45
37,45:45
37,47:15
37,48:5
37,49:6
37,51:45
37,52:45
37,54:24
37,55:6
37,56:15
37,57:8
37,58:8
37,59:22
37,60:5
37,61:5
37,62:45
37,63:42
37,64:24
37,65:6
37,66:24
37,67:15
37,68:27
37,69:5
37,70:14
38,1:19
38,2:19
38,3:19
38,5:19
38,6:27
38,8:14
38,9:27
38,10:12
38,11:30
38,12:30
38,13:8
38,14:37
38,16:12
38,17:30
38,18:20
38,19:20
38,20:27
38,21:27
38,22:37
38,23:42
38,24:19
38,25:22
38,26:5
38,27:5
38,28:14
38,29:5
38,30:19
38,31:14
38,32:14
38,33:42
38,34:5
38,35:45
38,41:27
38,44:45
38,45:45
38,47:15
38,48:5
38,49:6
38,51:45
38,52:45
38,54:24
38,55:6
38,56:15
38,57:8
38,58:8
38,59:22
38,60:5
38,61:5
38,62:45
38,63:42
38,64:24
38,65:6
38,66:24
38,67:15
38,68:27
38,69:5
38,70:14
39,1:19
39,2:19
39,3:19
39,5:19
39,6:27
39,8:14
39,9:27
39,10:12
39,11:30
39,12:30
39,13:8
39,14:37
39,16:12
39,17:30
39,18:20
39,19:20
39,20:27
39,21:27
39,22:37
39,23:42
39,24:19
39,25:22
39,26:5
39,27:5
39,28:14
39,29:5
39,30:19
39,31:14
39,32:14
39,33:42
39,34:5
39,35:45
39,41:27
39,44:45
39,45:45
39,47:15
39,48:5
39,49:6
39,51:45
39,52:45
39,54:24
39,55:6
39,56:15
39,57:8
39,58:8
39,59:22
39,60:5
39,61:5
39,62:45
39,63:42
39,64:24
39,65:6
39,66:24
39,67:15
39,68:27
39,69:5
39,70:14
40,1:14
40,2:14
40,3:14
40,5:14
40,6:22
40,8:9
40,9:22
40,10:7
40,11:25
40,12:25
40,13:3
40,14:32
40,16:7
40,17:25
40,18:15
40,19:15
40,20:22
40,21:22
40,22:32
40,23:37
40,24:14
40,25:17
40,28:9
40,30:14
40,31:9
40,32:9
40,33:37
40,35:40
40,41:22
40,44:40
40,45:40
40,47:10
40,49:1
40,51:40
40,52:40
40,54:19
40,55:1
40,56:10
40,57:3
40,58:3
40,59:17
40,62:40
40,63:37
40,64:19
40,65:1
40,66:19
40,67:10
40,68:22
40,70:9
41,11:3
41,12:3
41,14:10
41,17:3
41,22:10
41,23:15
41,33:15
41,35:18
41,44:18
41,45:18
41,51:18
41,52:18
41,62:18
41,63:15
42,1:14
42,2:14
42,3:14
42,5:14
42,6:22
42,8:9
42,9:22
42,10:7
42,11:25
42,12:25
42,13:3
42,14:32
42,16:7
42,17:25
42,18:15
42,19:15
42,20:22
42,21:22
42,22:32
42,23:37
42,24:14
42,25:17
42,28:9
42,30:14
42,31:9
42,32:9
42,33:37
42,35:40
42,41:22
42,44:40
42,45:40
42,47:10
42,49:1
42,51:40
42,52:40
42,54:19
42,55:1
42,56:10
42,57:3
42,58:3
42,59:17
42,62:40
42,63:37
42,64:19
42,65:1
42,66:19
42,67:10
42,68:22
42,70:9
43,1:13
43,2:13
43,3:13
43,5:13
43,6:21
43,8:8
43,9:21
43,10:6
43,11:24
43,12:24
43,13:2
43,14:31
43,16:6
43,17:24
43,18:14
43,19:14
43,20:21
43,21:21
43,22:31
43,23:36
43,24:13
43,25:16
43,28:8
43,30:13
43,31:8
43,32:8
43,33:36
43,35:39
43,41:21
43,44:39
43,45:39
43,47:9
43,51:39
43,52:39
43,54:18
43,56:9
43,57:2
43,58:2
43,59:16
43,62:39
43,63:36
43,64:18
43,66:18
43,67:9
43,68:21
43,70:8
46,1:19
46,2:19
46,3:19
46,5:19
46,6:27
46,8:14
46,9:27
46,10:12
46,11:30
46,12:30
46,13:8
46,14:37
46,16:12
46,17:30
46,18:20
46,19:20
46,20:27
46,21:27
46,22:37
46,23:42
46,24:19
46,25:22
46,26:5
46,27:5
46,28:14
46,29:5
46,30:19
46,31:14
46,32:14
46,33:42
46,34:5
46,35:45
46,40:5
46,41:27
46,42:5
46,43:6
46,44:45
46,45:45
46,48:5
46,49:6
46,51:45
46,52:45
46,54:24
46,55:6
46,56:15
46,57:8
46,58:8
46,59:22
46,60:5
46,61:5
46,62:45
46,63:42
46,64:24
46,65:6
46,66:24
46,67:15
46,68:27
46,69:5
46,70:14
47,1:4
47,2:4
47,3:4
47,5:4
47,6:12
47,9:12
47,11:15
47,12:15
47,14:22
47,17:15
47,18:5
47,19:5
47,20:12
47,21:12
47,22:22
47,23:27
47,24:4
47,25:7
47,30:4
47,33:27
47,35:30
47,41:12
47,44:30
47,45:30
47,51:30
47,52:30
47,54:9
47,59:7
47,62:30
47,63:27
47,64:9
47,66:9
47,68:12
48,1:14
48,2:14
48,3:14
48,5:14
48,6:22
48,8:9
48,9:22
48,10:7
48,11:25
48,12:25
48,13:3
48,14:32
48,16:7
48,17:25
48,18:15
48,19:15
48,20:22
48,21:22
48,22:32
48,23:37
48,24:14
48,25:17
48,28:9
48,30:14
48,31:9
48,32:9
48,33:37
48,35:40
48,41:22
48,43:1
48,44:40
48,45:40
48,47:10
48,51:40
48,52:40
48,54:19
48,55:1
48,56:10
48,57:3
48,58:3
48,59:17
48,62:40
48,63:37
48,64:19
48,65:1
48,66:19
48,67:10
48,68:22
48,70:9
49,1:13
49,2:13
49,3:13
49,5:13
49,6:21
49,8:8
49,9:21
49,10:6
49,11:24
49,12:24
49,13:2
49,14:31
49,16:6
49,17:24
49,18:14
49,19:14
49,20:21
49,21:21
49,22:31
49,23:36
49,24:13
49,25:16
49,28:8
49,30:13
49,31:8
49,32:8
49,33:36
49,35:39
49,41:21
49,44:39
49,45:39
49,47:9
49,51:39
49,52:39
49,54:18
49,56:9
49,57:2
49,58:2
49,59:16
49,62:39
49,63:36
49,64:18
49,66:18
49,67:9
49,68:21
49,70:8
50,1:13
50,2:13
50,3:13
50,5:13
50,6:21
50,8:8
50,9:21
50,10:6
50,11:24
50,12:24
50,13:2
50,14:31
50,16:6
50,17:24
50,18:14
50,19:14
50,20:21
50,21:21
50,22:31
50,23:36
50,24:13
50,25:16
50,28:8
50,30:13
50,31:8
50,32:8
50,33:36
50,35:39
50,41:21
50,44:39
50,45:39
50,47:9
50,51:39
50,52:39
50,54:18
50,56:9
50,57:2
50,58:2
50,59:16
50,62:39
50,63:36
50,64:18
50,66:18
50,67:9
50,68:21
50,70:8
53,1:19
53,2:19
53,3:19
53,5:19
53,6:27
53,8:14
53,9:27
53,10:12
53,11:30
53,12:30
53,13:8
53,14:37
53,16:12
53,17:30
53,18:20
53,19:20
53,20:27
53,21:27
53,22:37
53,23:42
53,24:19
53,25:22
53,26:5
53,27:5
53,28:14
53,29:5
53,30:19
53,31:14
53,32:14
53,33:42
53,34:5
53,35:45
53,40:5
53,41:27
53,42:5
53,43:6
53,44:45
53,45:45
53,47:15
53,48:5
53,49:6
53,50:6
53,51:45
53,52:45
53,56:15
53,57:8
53,58:8
53,59:22
53,60:5
53,61:5
53,62:45
53,63:42
53,64:24
53,65:6
53,66:24
53,67:15
53,68:27
53,69:5
53,70:14
54,6:3
54,9:3
54,11:6
54,12:6
54,14:13
54,17:6
54,20:3
54,21:3
54,22:13
54,23:18
54,33:18
54,35:21
54,41:3
54,44:21
54,45:21
54,51:21
54,52:21
54,62:21
54,63:18
54,68:3
55,1:13
55,2:13
55,3:13
55,5:13
55,6:21
55,8:8
55,9:21
55,10:6
55,11:24
55,12:24
55,13:2
55,14:31
55,16:6
55,17:24
55,18:14
55,19:14
55,20:21
55,21:21
55,22:31
55,23:36
55,24:13
55,25:16
55,28:8
55,30:13
55,31:8
55,32:8
55,33:36
55,35:39
55,41:21
55,44:39
55,45:39
55,47:9
55,51:39
55,52:39
55,54:18
55,56:9
55,57:2
55,58:2
55,59:16
55,62:39
55,63:36
55,64:18
55,66:18
55,67:9
55,68:21
55,70:8
56,1:4
56,2:4
56,3:4
56,5:4
56,6:12
56,9:12
56,11:15
56,12:15
56,14:22
56,17:15
56,18:5
56,19:5
56,20:12
56,21:12
56,22:22
56,23:27
56,24:4
56,25:7
56,30:4
56,33:27
56,35:30
56,41:12
56,44:30
56,45:30
56,51:30
56,52:30
56,54:9
56,59:7
56,62:30
56,63:27
56,64:9
56,66:9
56,68:12
57,1:11
57,2:11
57,3:11
57,5:11
57,6:19
57,8:6
57,9:19
57,10:4
57,11:22
57,12:22
57,14:29
57,16:4
57,17:22
57,18:12
57,19:12
57,20:19
57,21:19
57,22:29
57,23:34
57,24:11
57,25:14
57,28:6
57,30:11
57,31:6
57,32:6
57,33:34
57,35:37
57,41:19
57,44:37
57,45:37
57,47:7
57,51:37
57,52:37
57,54:16
57,56:7
57,62:37
57,63:34
57,64:16
57,66:16
57,67:7
57,68:19
57,70:6
58,1:11
58,2:11
58,3:11
58,5:11
58,6:19
58,8:6
58,9:19
58,10:4
58,11:22
58,12:22
58,14:29
58,16:4
58,17:22
58,18:12
58,19:12
58,20:19
58,21:19
58,22:29
58,23:34
58,24:11
58,25:14
58,28:6
58,30:11
58,31:6
58,32:6
58,33:34
58,35:37
58,41:19
58,44:37
58,45:37
58,47:7
58,51:37
58,52:37
58,54:16
58,56:7
58,62:37
58,63:34
58,64:16
58,66:16
58,67:7
58,68:19
58,70:6
59,6:5
59,9:5
59,11:8
59,12:8
59,14:15
59,17:8
59,20:5
59,21:5
59,22:15
59,23:20
59,33:20
59,35:23
59,41:5
59,44:23
59,45:23
59,51:23
59,52:23
59,54:2
59,62:23
59,63:20
59,64:2
59,66:2
59,68:5
60,1:14
60,2:14
60,3:14
60,5:14
60,6:22
60,8:9
60,9:22
60,10:7
60,11:25
60,12:25
60,13:3
60,14:32
60,16:7
60,17:25
60,18:15
60,19:15
60,20:22
60,21:22
60,22:32
60,23:37
60,24:14
60,25:17
60,28:9
60,30:14
60,31:9
60,32:9
60,33:37
60,35:40
60,41:22
60,43:1
60,44:40
60,45:40
60,47:10
60,49:1
60,50:1
60,51:40
60,52:40
60,54:19
60,55:1
60,56:10
60,57:3
60,58:3
60,59:17
60,62:40
60,63:37
60,64:19
60,65:1
60,66:19
60,67:10
60,68:22
60,70:9
61,1:14
61,2:14
61,3:14
61,5:14
61,6:22
61,8:9
61,9:22
61,10:7
61,11:25
61,12:25
61,13:3
61,14:32
61,16:7
61,17:25
61,18:15
61,19:15
61,20:22
61,21:22
61,22:32
61,23:37
61,24:14
61,25:17
61,28:9
61,30:14
61,31:9
61,32:9
61,33:37
61,35:40
61,41:22
61,43:1
61,44:40
61,45:40
61,47:10
61,49:1
61,50:1
61,51:40
61,52:40
61,54:19
61,55:1
61,56:10
61,57:3
61,58:3
61,59:17
61,62:40
61,63:37
61,64:19
61,66:19
61,67:10
61,68:22
61,70:9
63,35:3
63,44:3
63,45:3
63,51:3
63,52:3
63,62:3
64,6:3
64,9:3
64,11:6
64,12:6
64,14:13
64,17:6
64,20:3
64,21:3
64,22:13
64,23:18
64,33:18
64,35:21
64,41:3
64,44:21
64,45:21
64,51:21
64,52:21
64,62:21
64,63:18
64,68:3
65,1:13
65,2:13
65,3:13
65,5:13
65,6:21
65,8:8
65,9:21
65,10:6
65,11:24
65,12:24
65,13:2
65,14:31
65,16:6
65,17:24
65,18:14
65,19:14
65,20:21
65,21:21
65,22:31
65,23:36
65,24:13
65,25:16
65,28:8
65,30:13
65,31:8
65,32:8
65,33:36
65,35:39
65,41:21
65,44:39
65,45:39
65,47:9
65,51:39
65,52:39
65,54:18
65,56:9
65,57:2
65,58:2
65,59:16
65,62:39
65,63:36
65,64:18
65,66:18
65,67:9
65,68:21
65,70:8
66,6:3
66,9:3
66,11:6
66,12:6
66,14:13
66,17:6
66,20:3
66,21:3
66,22:13
66,23:18
66,33:18
66,35:21
66,41:3
66,44:21
66,45:21
66,51:21
66,52:21
66,62:21
66,63:18
66,68:3
67,1:4
67,2:4
67,3:4
67,5:4
67,6:12
67,9:12
67,11:15
67,12:15
67,14:22
67,17:15
67,18:5
67,19:5
67,20:12
67,21:12
67,22:22
67,23:27
67,24:4
67,25:7
67,30:4
67,33:27
67,35:30
67,41:12
67,44:30
67,45:30
67,51:30
67,52:30
67,54:9
67,59:7
67,62:30
67,63:27
67,64:9
67,66:9
67,68:12
68,11:3
68,12:3
68,14:10
68,17:3
68,22:10
68,23:15
68,33:15
68,35:18
68,44:18
68,45:18
68,51:18
68,52:18
68,62:18
68,63:15
69,1:14
69,2:14
69,3:14
69,5:14
69,6:22
69,8:9
69,9:22
69,10:7
69,11:25
69,12:25
69,13:3
69,14:32
69,16:7
69,17:25
69,18:15
69,19:15
69,20:22
69,21:22
69,22:32
69,23:37
69,24:14
69,25:17
69,28:9
69,30:14
69,31:9
69,32:9
69,33:37
69,35:40
69,41:22
69,43:1
69,44:40
69,45:40
69,47:10
69,49:1
69,50:1
69,51:40
69,52:40
69,54:19
69,55:1
69,56:10
69,57:3
69,58:3
69,59:17
69,62:40
69,63:37
69,64:19
69,65:1
69,66:19
69,67:10
69,68:22
69,70:9
70,1:5
70,2:5
70,3:5
70,5:5
70,6:13
70,9:13
70,11:16
70,12:16
70,14:23
70,17:16
70,18:6
70,19:6
70,20:13
70,21:13
70,22:23
70,23:28
70,24:5
70,25:8
70,30:5
70,33:28
70,35:31
70,41:13
70,44:31
70,45:31
70,47:1
70,51:31
70,52:31
70,54:10
70,56:1
70,59:8
70,62:31
70,63:28
70,64:10
70,66:10
70,67:1
70,68:13

<end>

<optimal SALBP-1 value>
21


<rand seed>
467321153

